32	0

0	1	2
9	1	3
4	1	4
5	1	5
6	2	6	7
4	2	8	9
5	2	8	9
10	1	11
3	1	10
7	1	11
4	1	12
4	1	13
10	1	14
5	1	15
2	1	16
5	2	17	18
5	2	19	20
5	2	19	20
3	1	21
3	1	21
10	2	22	23
5	1	24
8	1	25
5	1	25
1	1	26
1	1	27
9	1	28
4	1	29
2	1	30
8	1	31
6	1	32
0	0
